% Generated FlatZinc statistics:
%%%mzn-stat: paths=220052
%%%mzn-stat: flatBoolVars=2850
%%%mzn-stat: flatIntVars=8621
%%%mzn-stat: flatSetVars=5625
%%%mzn-stat: flatIntConstraints=9596
%%%mzn-stat: flatSetConstraints=7425
%%%mzn-stat: evaluatedReifiedConstraints=2850
%%%mzn-stat: method="minimize"
%%%mzn-stat: flatTime=27.7665
%%%mzn-stat-end
w = 4608; 
link_objective = 48; 
cpu_objective = 96; 
services2locs = [7, 4, 14, 12, 2, 9, 11, 10, 8, 13, 6, 4, 6, 9, 4, 4, 5, 3, 8, 6, 10, 1, 2, 3, 14, 7, 12, 10, 5, 9, 14, 6, 9, 14, 10, 14, 11, 14, 2, 3, 1, 2, 11, 8, 14, 4, 10, 14, 8, 3, 8, 10, 4, 4, 11, 6, 7, 3, 2, 13, 7, 12, 7, 8, 5, 7, 1, 13, 8, 7, 9, 11, 12, 8, 12];
locations2names = ["ECU1", "ECU2", "ECU3", "DM1", "DM2", "DM3", "CAM1", "CAM2", "CAM3", "CAM4", "Display1", "Display2", "Display3", "Display4", "Switch1", "Switch2", "Switch3", "Switch4", "Switch5"];
services2names = ["S2_Audio_1", "S2_Audio_2", "S3_Video_1", "S2_Audio_3", "S1_C&C_2_1", "S3_Video_2", "S4_BE_1", "S4_BE_2", "S3_Video_3", "S4_BE_3", "S1_C&C_2_2", "S2_Audio_4", "S2_Audio_5", "S4_BE_4", "S4_BE_5", "S3_Video_4", "S3_Video_5", "S1_C&C_2_3", "S4_BE_6", "S3_Video_6", "S2_Audio_6", "S3_Video_7", "S2_Audio_7", "S1_C&C_1_1", "S1_C&C_1_2", "S4_BE_7", "S1_C&C_1_3", "S1_C&C_1_4", "S4_BE_8", "S4_BE_9", "S1_C&C_2_4", "S1_C&C_1_5", "S1_C&C_1_6", "S1_C&C_1_7", "S1_C&C_1_8", "S1_C&C_2_5", "S4_BE_10", "S4_BE_11", "S4_BE_12", "S2_Audio_8", "S1_C&C_2_6", "S4_BE_13", "S1_C&C_2_7", "S1_C&C_2_8", "S1_C&C_1_9", "S4_BE_14", "S3_Video_8", "S1_C&C_1_10", "S2_Audio_9", "S3_Video_9", "S1_C&C_1_11", "S2_Audio_10", "S3_Video_10", "S3_Video_11", "S2_Audio_11", "S4_BE_15", "S4_BE_16", "S3_Video_12", "S1_C&C_2_9", "S1_C&C_2_10", "S4_BE_17", "S4_BE_18", "S4_BE_19", "S3_Video_13", "S1_C&C_1_12", "S4_BE_20", "S3_Video_14", "S4_BE_21", "S1_C&C_1_13", "S1_C&C_1_14", "S1_C&C_1_15", "S4_BE_22", "S1_C&C_1_16", "S3_Video_15", "S4_BE_23"];
cpu_usage = [36, 60, 60, 84, 36, 60, 84, 96, 60, 72, 60, 60, 36, 96, 0, 0, 0, 0, 0]; 
slack = [62541376, 78269664, 69303440, 97944544, 95227536, 53936304, 97274800, 75559808, 92580576, 92621840, 85202416, 51463280, 87682064, 73111808, 86314480, 990592288, 77237104, 76488384]; 
charge = [37, 21, 30, 2, 4, 46, 2, 24, 7, 7, 14, 48, 12, 26, 13, 0, 22, 23]; 
----------
%%%mzn-stat: initTime=0.606016
%%%mzn-stat: solveTime=32.3629
%%%mzn-stat: solutions=2
%%%mzn-stat: variables=17101
%%%mzn-stat: propagators=17021
%%%mzn-stat: propagations=11500038
%%%mzn-stat: nodes=10633
%%%mzn-stat: failures=5279
%%%mzn-stat: restarts=0
%%%mzn-stat: peakDepth=82
%%%mzn-stat-end
%%%mzn-stat: nSolutions=1
%%%mzn-stat-end
